c colouring generated by benchmark framework
p edge 329 515
v 1 1
v 2 2
v 3 1
v 4 1
v 5 2
v 6 2
v 7 0
v 8 1
v 9 2
v 10 2
v 11 1
v 12 1
v 13 1
v 14 0
v 15 0
v 16 0
v 17 1
v 18 2
v 19 1
v 20 2
v 21 0
v 22 1
v 23 1
v 24 0
v 25 0
v 26 1
v 27 1
v 28 2
v 29 0
v 30 0
v 31 2
v 32 0
v 33 1
v 34 0
v 35 0
v 36 1
v 37 2
v 38 2
v 39 0
v 40 0
v 41 0
v 42 1
v 43 0
v 44 1
v 45 0
v 46 0
v 47 1
v 48 2
v 49 2
v 50 1
v 51 0
v 52 0
v 53 0
v 54 2
v 55 1
v 56 0
v 57 1
v 58 1
v 59 0
v 60 1
v 61 1
v 62 1
v 63 2
v 64 1
v 65 0
v 66 0
v 67 1
v 68 1
v 69 1
v 70 1
v 71 2
v 72 0
v 73 1
v 74 2
v 75 2
v 76 0
v 77 1
v 78 0
v 79 2
v 80 0
v 81 1
v 82 0
v 83 0
v 84 1
v 85 1
v 86 2
v 87 2
v 88 2
v 89 1
v 90 1
v 91 1
v 92 0
v 93 2
v 94 2
v 95 1
v 96 2
v 97 1
v 98 1
v 99 0
v 100 0
v 101 1
v 102 0
v 103 1
v 104 0
v 105 1
v 106 0
v 107 0
v 108 0
v 109 1
v 110 1
v 111 1
v 112 1
v 113 0
v 114 2
v 115 1
v 116 1
v 117 1
v 118 2
v 119 1
v 120 1
v 121 2
v 122 1
v 123 0
v 124 2
v 125 0
v 126 1
v 127 1
v 128 1
v 129 2
v 130 1
v 131 0
v 132 2
v 133 1
v 134 1
v 135 1
v 136 1
v 137 1
v 138 0
v 139 1
v 140 0
v 141 1
v 142 0
v 143 1
v 144 1
v 145 1
v 146 0
v 147 2
v 148 0
v 149 1
v 150 1
v 151 0
v 152 0
v 153 1
v 154 0
v 155 0
v 156 0
v 157 2
v 158 2
v 159 1
v 160 0
v 161 2
v 162 2
v 163 2
v 164 1
v 165 1
v 166 2
v 167 1
v 168 0
v 169 0
v 170 0
v 171 2
v 172 0
v 173 2
v 174 2
v 175 0
v 176 0
v 177 2
v 178 2
v 179 0
v 180 0
v 181 0
v 182 2
v 183 0
v 184 0
v 185 0
v 186 0
v 187 0
v 188 0
v 189 0
v 190 0
v 191 2
v 192 0
v 193 0
v 194 0
v 195 0
v 196 0
v 197 1
v 198 0
v 199 0
v 200 1
v 201 0
v 202 1
v 203 2
v 204 0
v 205 1
v 206 1
v 207 2
v 208 1
v 209 1
v 210 2
v 211 1
v 212 0
v 213 1
v 214 0
v 215 0
v 216 1
v 217 1
v 218 0
v 219 0
v 220 2
v 221 1
v 222 0
v 223 2
v 224 0
v 225 2
v 226 1
v 227 2
v 228 0
v 229 1
v 230 1
v 231 1
v 232 0
v 233 0
v 234 0
v 235 0
v 236 1
v 237 0
v 238 0
v 239 1
v 240 1
v 241 2
v 242 0
v 243 2
v 244 2
v 245 0
v 246 1
v 247 2
v 248 0
v 249 1
v 250 0
v 251 1
v 252 0
v 253 1
v 254 1
v 255 3
v 256 0
v 257 2
v 258 1
v 259 1
v 260 1
v 261 1
v 262 1
v 263 0
v 264 1
v 265 1
v 266 1
v 267 0
v 268 2
v 269 2
v 270 1
v 271 1
v 272 1
v 273 1
v 274 0
v 275 0
v 276 1
v 277 0
v 278 0
v 279 1
v 280 1
v 281 1
v 282 0
v 283 2
v 284 1
v 285 1
v 286 0
v 287 1
v 288 2
v 289 0
v 290 1
v 291 0
v 292 2
v 293 0
v 294 0
v 295 2
v 296 2
v 297 2
v 298 2
v 299 2
v 300 1
v 301 0
v 302 0
v 303 2
v 304 1
v 305 0
v 306 0
v 307 0
v 308 2
v 309 2
v 310 0
v 311 3
v 312 1
v 313 1
v 314 2
v 315 2
v 316 0
v 317 1
v 318 1
v 319 1
v 320 0
v 321 1
v 322 2
v 323 0
v 324 0
v 325 1
v 326 0
v 327 0
v 328 0
v 329 0
